Route #1: 75 34 46 8 35 53 7 67
Route #2: 4 52 27 45 29 5 48 30
Route #3: 6 51 16 63 33 1 73 62 2 68
Route #4: 38 65 66 11 59 14 19
Route #5: 54 13 57 15 37 20 70 60 71 69 36 47 21
Route #6: 74 28 61 22 64 42 43 41 56 23
Route #7: 17 44 3 49 24 18 55 25 50 32 12
Route #8: 40 9 39 72 31 10 58 26
Cost 767